(set-option :produce-models true)
(set-logic QF_LRA)
(set-info :notes | Strip-packing problem.|)
(declare-fun x0 () Real)
(declare-fun y0 () Real)
(declare-fun x1 () Real)
(declare-fun y1 () Real)
(declare-fun x2 () Real)
(declare-fun y2 () Real)
(declare-fun x3 () Real)
(declare-fun y3 () Real)
(declare-fun x4 () Real)
(declare-fun y4 () Real)
(declare-fun x5 () Real)
(declare-fun y5 () Real)
(declare-fun x6 () Real)
(declare-fun y6 () Real)
(declare-fun x7 () Real)
(declare-fun y7 () Real)
(declare-fun x8 () Real)
(declare-fun y8 () Real)
(declare-fun x9 () Real)
(declare-fun y9 () Real)
(declare-fun x10 () Real)
(declare-fun y10 () Real)
(declare-fun x11 () Real)
(declare-fun y11 () Real)
(declare-fun z () Real)
(declare-fun c () Real)
(assert (and (= c z) (and (>= x0 0) 
(and (>= y0 0) 
(and (>= x1 0) 
(and (>= y1 0) 
(and (>= x2 0) 
(and (>= y2 0) 
(and (>= x3 0) 
(and (>= y3 0) 
(and (>= x4 0) 
(and (>= y4 0) 
(and (>= x5 0) 
(and (>= y5 0) 
(and (>= x6 0) 
(and (>= y6 0) 
(and (>= x7 0) 
(and (>= y7 0) 
(and (>= x8 0) 
(and (>= y8 0) 
(and (>= x9 0) 
(and (>= y9 0) 
(and (>= x10 0) 
(and (>= y10 0) 
(and (>= x11 0) 
(and (>= y11 0) 
(and (>= z 0) 
(and (>= c 0) 
(and (<= (+ x0 0.8863892159) z) 
(and (<= 0.8793849364 y0) 
(and (<= y0 1.0) 
(and (<= x0 (- 3.8505466743 0.8863892159)) 
(and (>= x0 0) 
(and (<= (+ x1 0.5799714309) z) 
(and (<= 0.7307852339 y1) 
(and (<= y1 1.0) 
(and (<= x1 (- 3.8505466743 0.5799714309)) 
(and (>= x1 0) 
(and (<= (+ x2 0.0663517623) z) 
(and (<= 0.6485876581 y2) 
(and (<= y2 1.0) 
(and (<= x2 (- 3.8505466743 0.0663517623)) 
(and (>= x2 0) 
(and (<= (+ x3 0.0758635903) z) 
(and (<= 0.5540015312 y3) 
(and (<= y3 1.0) 
(and (<= x3 (- 3.8505466743 0.0758635903)) 
(and (>= x3 0) 
(and (<= (+ x4 0.5583355591) z) 
(and (<= 0.5432830339 y4) 
(and (<= y4 1.0) 
(and (<= x4 (- 3.8505466743 0.5583355591)) 
(and (>= x4 0) 
(and (<= (+ x5 0.6866474652) z) 
(and (<= 0.4972834168 y5) 
(and (<= y5 1.0) 
(and (<= x5 (- 3.8505466743 0.6866474652)) 
(and (>= x5 0) 
(and (<= (+ x6 0.9969876506) z) 
(and (<= 0.4857608077 y6) 
(and (<= y6 1.0) 
(and (<= x6 (- 3.8505466743 0.9969876506)) 
(and (>= x6 0) 
(and (<= (+ x7 0.1402715548) z) 
(and (<= 0.4847201715 y7) 
(and (<= y7 1.0) 
(and (<= x7 (- 3.8505466743 0.1402715548)) 
(and (>= x7 0) 
(and (<= (+ x8 0.8728045751) z) 
(and (<= 0.1774957387 y8) 
(and (<= y8 1.0) 
(and (<= x8 (- 3.8505466743 0.8728045751)) 
(and (>= x8 0) 
(and (<= (+ x9 0.0049325253) z) 
(and (<= 0.127015267 y9) 
(and (<= y9 1.0) 
(and (<= x9 (- 3.8505466743 0.0049325253)) 
(and (>= x9 0) 
(and (<= (+ x10 0.6908787699) z) 
(and (<= 0.1245873656 y10) 
(and (<= y10 1.0) 
(and (<= x10 (- 3.8505466743 0.6908787699)) 
(and (>= x10 0) 
(and (<= (+ x11 0.5615813646) z) 
(and (<= 0.0467735708 y11) 
(and (<= y11 1.0) 
(and (<= x11 (- 3.8505466743 0.5615813646)) 
(and (>= x11 0) 
(and (<= c 3.8505466743) 
(and (or (<= (+ x0 0.8863892159) x1) (or (<= (+ x1 0.5799714309) x0) (or (>= (- y0 0.8793849364) y1) (or (>= (- y1 0.7307852339) y0))))) 
(and (or (<= (+ x0 0.8863892159) x2) (or (<= (+ x2 0.0663517623) x0) (or (>= (- y0 0.8793849364) y2) (or (>= (- y2 0.6485876581) y0))))) 
(and (or (<= (+ x0 0.8863892159) x3) (or (<= (+ x3 0.0758635903) x0) (or (>= (- y0 0.8793849364) y3) (or (>= (- y3 0.5540015312) y0))))) 
(and (or (<= (+ x0 0.8863892159) x4) (or (<= (+ x4 0.5583355591) x0) (or (>= (- y0 0.8793849364) y4) (or (>= (- y4 0.5432830339) y0))))) 
(and (or (<= (+ x0 0.8863892159) x5) (or (<= (+ x5 0.6866474652) x0) (or (>= (- y0 0.8793849364) y5) (or (>= (- y5 0.4972834168) y0))))) 
(and (or (<= (+ x0 0.8863892159) x6) (or (<= (+ x6 0.9969876506) x0) (or (>= (- y0 0.8793849364) y6) (or (>= (- y6 0.4857608077) y0))))) 
(and (or (<= (+ x0 0.8863892159) x7) (or (<= (+ x7 0.1402715548) x0) (or (>= (- y0 0.8793849364) y7) (or (>= (- y7 0.4847201715) y0))))) 
(and (or (<= (+ x0 0.8863892159) x8) (or (<= (+ x8 0.8728045751) x0) (or (>= (- y0 0.8793849364) y8) (or (>= (- y8 0.1774957387) y0))))) 
(and (or (<= (+ x0 0.8863892159) x9) (or (<= (+ x9 0.0049325253) x0) (or (>= (- y0 0.8793849364) y9) (or (>= (- y9 0.127015267) y0))))) 
(and (or (<= (+ x0 0.8863892159) x10) (or (<= (+ x10 0.6908787699) x0) (or (>= (- y0 0.8793849364) y10) (or (>= (- y10 0.1245873656) y0))))) 
(and (or (<= (+ x0 0.8863892159) x11) (or (<= (+ x11 0.5615813646) x0) (or (>= (- y0 0.8793849364) y11) (or (>= (- y11 0.0467735708) y0))))) 
(and (or (<= (+ x1 0.5799714309) x2) (or (<= (+ x2 0.0663517623) x1) (or (>= (- y1 0.7307852339) y2) (or (>= (- y2 0.6485876581) y1))))) 
(and (or (<= (+ x1 0.5799714309) x3) (or (<= (+ x3 0.0758635903) x1) (or (>= (- y1 0.7307852339) y3) (or (>= (- y3 0.5540015312) y1))))) 
(and (or (<= (+ x1 0.5799714309) x4) (or (<= (+ x4 0.5583355591) x1) (or (>= (- y1 0.7307852339) y4) (or (>= (- y4 0.5432830339) y1))))) 
(and (or (<= (+ x1 0.5799714309) x5) (or (<= (+ x5 0.6866474652) x1) (or (>= (- y1 0.7307852339) y5) (or (>= (- y5 0.4972834168) y1))))) 
(and (or (<= (+ x1 0.5799714309) x6) (or (<= (+ x6 0.9969876506) x1) (or (>= (- y1 0.7307852339) y6) (or (>= (- y6 0.4857608077) y1))))) 
(and (or (<= (+ x1 0.5799714309) x7) (or (<= (+ x7 0.1402715548) x1) (or (>= (- y1 0.7307852339) y7) (or (>= (- y7 0.4847201715) y1))))) 
(and (or (<= (+ x1 0.5799714309) x8) (or (<= (+ x8 0.8728045751) x1) (or (>= (- y1 0.7307852339) y8) (or (>= (- y8 0.1774957387) y1))))) 
(and (or (<= (+ x1 0.5799714309) x9) (or (<= (+ x9 0.0049325253) x1) (or (>= (- y1 0.7307852339) y9) (or (>= (- y9 0.127015267) y1))))) 
(and (or (<= (+ x1 0.5799714309) x10) (or (<= (+ x10 0.6908787699) x1) (or (>= (- y1 0.7307852339) y10) (or (>= (- y10 0.1245873656) y1))))) 
(and (or (<= (+ x1 0.5799714309) x11) (or (<= (+ x11 0.5615813646) x1) (or (>= (- y1 0.7307852339) y11) (or (>= (- y11 0.0467735708) y1))))) 
(and (or (<= (+ x2 0.0663517623) x3) (or (<= (+ x3 0.0758635903) x2) (or (>= (- y2 0.6485876581) y3) (or (>= (- y3 0.5540015312) y2))))) 
(and (or (<= (+ x2 0.0663517623) x4) (or (<= (+ x4 0.5583355591) x2) (or (>= (- y2 0.6485876581) y4) (or (>= (- y4 0.5432830339) y2))))) 
(and (or (<= (+ x2 0.0663517623) x5) (or (<= (+ x5 0.6866474652) x2) (or (>= (- y2 0.6485876581) y5) (or (>= (- y5 0.4972834168) y2))))) 
(and (or (<= (+ x2 0.0663517623) x6) (or (<= (+ x6 0.9969876506) x2) (or (>= (- y2 0.6485876581) y6) (or (>= (- y6 0.4857608077) y2))))) 
(and (or (<= (+ x2 0.0663517623) x7) (or (<= (+ x7 0.1402715548) x2) (or (>= (- y2 0.6485876581) y7) (or (>= (- y7 0.4847201715) y2))))) 
(and (or (<= (+ x2 0.0663517623) x8) (or (<= (+ x8 0.8728045751) x2) (or (>= (- y2 0.6485876581) y8) (or (>= (- y8 0.1774957387) y2))))) 
(and (or (<= (+ x2 0.0663517623) x9) (or (<= (+ x9 0.0049325253) x2) (or (>= (- y2 0.6485876581) y9) (or (>= (- y9 0.127015267) y2))))) 
(and (or (<= (+ x2 0.0663517623) x10) (or (<= (+ x10 0.6908787699) x2) (or (>= (- y2 0.6485876581) y10) (or (>= (- y10 0.1245873656) y2))))) 
(and (or (<= (+ x2 0.0663517623) x11) (or (<= (+ x11 0.5615813646) x2) (or (>= (- y2 0.6485876581) y11) (or (>= (- y11 0.0467735708) y2))))) 
(and (or (<= (+ x3 0.0758635903) x4) (or (<= (+ x4 0.5583355591) x3) (or (>= (- y3 0.5540015312) y4) (or (>= (- y4 0.5432830339) y3))))) 
(and (or (<= (+ x3 0.0758635903) x5) (or (<= (+ x5 0.6866474652) x3) (or (>= (- y3 0.5540015312) y5) (or (>= (- y5 0.4972834168) y3))))) 
(and (or (<= (+ x3 0.0758635903) x6) (or (<= (+ x6 0.9969876506) x3) (or (>= (- y3 0.5540015312) y6) (or (>= (- y6 0.4857608077) y3))))) 
(and (or (<= (+ x3 0.0758635903) x7) (or (<= (+ x7 0.1402715548) x3) (or (>= (- y3 0.5540015312) y7) (or (>= (- y7 0.4847201715) y3))))) 
(and (or (<= (+ x3 0.0758635903) x8) (or (<= (+ x8 0.8728045751) x3) (or (>= (- y3 0.5540015312) y8) (or (>= (- y8 0.1774957387) y3))))) 
(and (or (<= (+ x3 0.0758635903) x9) (or (<= (+ x9 0.0049325253) x3) (or (>= (- y3 0.5540015312) y9) (or (>= (- y9 0.127015267) y3))))) 
(and (or (<= (+ x3 0.0758635903) x10) (or (<= (+ x10 0.6908787699) x3) (or (>= (- y3 0.5540015312) y10) (or (>= (- y10 0.1245873656) y3))))) 
(and (or (<= (+ x3 0.0758635903) x11) (or (<= (+ x11 0.5615813646) x3) (or (>= (- y3 0.5540015312) y11) (or (>= (- y11 0.0467735708) y3))))) 
(and (or (<= (+ x4 0.5583355591) x5) (or (<= (+ x5 0.6866474652) x4) (or (>= (- y4 0.5432830339) y5) (or (>= (- y5 0.4972834168) y4))))) 
(and (or (<= (+ x4 0.5583355591) x6) (or (<= (+ x6 0.9969876506) x4) (or (>= (- y4 0.5432830339) y6) (or (>= (- y6 0.4857608077) y4))))) 
(and (or (<= (+ x4 0.5583355591) x7) (or (<= (+ x7 0.1402715548) x4) (or (>= (- y4 0.5432830339) y7) (or (>= (- y7 0.4847201715) y4))))) 
(and (or (<= (+ x4 0.5583355591) x8) (or (<= (+ x8 0.8728045751) x4) (or (>= (- y4 0.5432830339) y8) (or (>= (- y8 0.1774957387) y4))))) 
(and (or (<= (+ x4 0.5583355591) x9) (or (<= (+ x9 0.0049325253) x4) (or (>= (- y4 0.5432830339) y9) (or (>= (- y9 0.127015267) y4))))) 
(and (or (<= (+ x4 0.5583355591) x10) (or (<= (+ x10 0.6908787699) x4) (or (>= (- y4 0.5432830339) y10) (or (>= (- y10 0.1245873656) y4))))) 
(and (or (<= (+ x4 0.5583355591) x11) (or (<= (+ x11 0.5615813646) x4) (or (>= (- y4 0.5432830339) y11) (or (>= (- y11 0.0467735708) y4))))) 
(and (or (<= (+ x5 0.6866474652) x6) (or (<= (+ x6 0.9969876506) x5) (or (>= (- y5 0.4972834168) y6) (or (>= (- y6 0.4857608077) y5))))) 
(and (or (<= (+ x5 0.6866474652) x7) (or (<= (+ x7 0.1402715548) x5) (or (>= (- y5 0.4972834168) y7) (or (>= (- y7 0.4847201715) y5))))) 
(and (or (<= (+ x5 0.6866474652) x8) (or (<= (+ x8 0.8728045751) x5) (or (>= (- y5 0.4972834168) y8) (or (>= (- y8 0.1774957387) y5))))) 
(and (or (<= (+ x5 0.6866474652) x9) (or (<= (+ x9 0.0049325253) x5) (or (>= (- y5 0.4972834168) y9) (or (>= (- y9 0.127015267) y5))))) 
(and (or (<= (+ x5 0.6866474652) x10) (or (<= (+ x10 0.6908787699) x5) (or (>= (- y5 0.4972834168) y10) (or (>= (- y10 0.1245873656) y5))))) 
(and (or (<= (+ x5 0.6866474652) x11) (or (<= (+ x11 0.5615813646) x5) (or (>= (- y5 0.4972834168) y11) (or (>= (- y11 0.0467735708) y5))))) 
(and (or (<= (+ x6 0.9969876506) x7) (or (<= (+ x7 0.1402715548) x6) (or (>= (- y6 0.4857608077) y7) (or (>= (- y7 0.4847201715) y6))))) 
(and (or (<= (+ x6 0.9969876506) x8) (or (<= (+ x8 0.8728045751) x6) (or (>= (- y6 0.4857608077) y8) (or (>= (- y8 0.1774957387) y6))))) 
(and (or (<= (+ x6 0.9969876506) x9) (or (<= (+ x9 0.0049325253) x6) (or (>= (- y6 0.4857608077) y9) (or (>= (- y9 0.127015267) y6))))) 
(and (or (<= (+ x6 0.9969876506) x10) (or (<= (+ x10 0.6908787699) x6) (or (>= (- y6 0.4857608077) y10) (or (>= (- y10 0.1245873656) y6))))) 
(and (or (<= (+ x6 0.9969876506) x11) (or (<= (+ x11 0.5615813646) x6) (or (>= (- y6 0.4857608077) y11) (or (>= (- y11 0.0467735708) y6))))) 
(and (or (<= (+ x7 0.1402715548) x8) (or (<= (+ x8 0.8728045751) x7) (or (>= (- y7 0.4847201715) y8) (or (>= (- y8 0.1774957387) y7))))) 
(and (or (<= (+ x7 0.1402715548) x9) (or (<= (+ x9 0.0049325253) x7) (or (>= (- y7 0.4847201715) y9) (or (>= (- y9 0.127015267) y7))))) 
(and (or (<= (+ x7 0.1402715548) x10) (or (<= (+ x10 0.6908787699) x7) (or (>= (- y7 0.4847201715) y10) (or (>= (- y10 0.1245873656) y7))))) 
(and (or (<= (+ x7 0.1402715548) x11) (or (<= (+ x11 0.5615813646) x7) (or (>= (- y7 0.4847201715) y11) (or (>= (- y11 0.0467735708) y7))))) 
(and (or (<= (+ x8 0.8728045751) x9) (or (<= (+ x9 0.0049325253) x8) (or (>= (- y8 0.1774957387) y9) (or (>= (- y9 0.127015267) y8))))) 
(and (or (<= (+ x8 0.8728045751) x10) (or (<= (+ x10 0.6908787699) x8) (or (>= (- y8 0.1774957387) y10) (or (>= (- y10 0.1245873656) y8))))) 
(and (or (<= (+ x8 0.8728045751) x11) (or (<= (+ x11 0.5615813646) x8) (or (>= (- y8 0.1774957387) y11) (or (>= (- y11 0.0467735708) y8))))) 
(and (or (<= (+ x9 0.0049325253) x10) (or (<= (+ x10 0.6908787699) x9) (or (>= (- y9 0.127015267) y10) (or (>= (- y10 0.1245873656) y9))))) 
(and (or (<= (+ x9 0.0049325253) x11) (or (<= (+ x11 0.5615813646) x9) (or (>= (- y9 0.127015267) y11) (or (>= (- y11 0.0467735708) y9))))) 
(and (or (<= (+ x10 0.6908787699) x11) (or (<= (+ x11 0.5615813646) x10) (or (>= (- y10 0.1245873656) y11) (or (>= (- y11 0.0467735708) y10))))) )))))))))))))))))))))))))))))))))))))))))))))))))))))))))))))))))))))))))))))))))))))))))))))))))))))))))))))))))))))))))))))))))))))))))))))))))))))))))))
(minimize c)
(check-sat)
(get-objectives)
(exit)
